p cnf 15 27
11 6 -10 -9 0
8 -12 0
-9 14 7 0
-7 -14 -3 1 0
-8 -14 3 -11 0
8 -6 -10 0
11 2 10 -10 0
3 15 6 7 0
9 -11 -1 14 0
-15 11 -3 0
9 -5 1 15 0
-15 -4 7 0
-15 -12 -10 0
-5 4 15 0
11 3 -12 -3 0
-6 -1 -9 0
8 13 0
12 5 0
-6 -12 -3 -10 0
-7 -6 -3 -2 0
13 5 -10 7 0
11 0
-14 14 0
-9 0
-8 -10 0
-4 0
-6 -13 0
